208911
76,72,70,53,66,40,10,84,47,20,15,19,55,39,45,85,24,61,32,83,38,48,36,93,77,2,100,104,37,103,94,35,50,99,81,52,17,69,95,59,90,42,43,58,65,86,67,91,7,105,97,41,8,18,80,98,49,13,46,60,25,33,56,82,73,101,23,0,27,26,9,75,88,79,22,92,11,30,63,89,16,21,1,6,31,34,74,3,14,57,78,102,62,71,44,68,4,29,28,54,96,64,51,12,87,5